
Gurobi 12.0.2 (mac64[arm]) logging started Fri Jun 13 23:56:56 2025

Set parameter LogFile to value "/Users/yurunfeng/Documents/GitHub/LRGTS-store-location/result/gurobi/snyder/49nodes/49-0.95-3.log"
Gurobi Optimizer version 12.0.2 build v12.0.2rc0 (mac64[arm] - Darwin 24.5.0 24F74)

CPU model: Apple M4
Thread count: 10 physical cores, 10 logical processors, using up to 10 threads

Non-default parameters:
TimeLimit  1200

Optimize a model with 132251 rows, 240247 columns and 1133517 nonzeros
Model fingerprint: 0x38a5b76e
Variable types: 120099 continuous, 120148 integer (120148 binary)
Coefficient statistics:
  Matrix range     [5e-02, 1e+00]
  Objective range  [2e+02, 3e+06]
  Bounds range     [1e+00, 1e+00]
  RHS range        [1e+00, 3e+00]
Found heuristic solution: objective 2.470516e+07
Presolve removed 4900 rows and 2450 columns
Presolve time: 1.26s
Presolved: 127351 rows, 237797 columns, 1006117 nonzeros
Variable types: 117649 continuous, 120148 integer (120148 binary)
Deterministic concurrent LP optimizer: primal simplex, dual simplex, and barrier
Showing barrier log only...

Root barrier log...

Ordering time: 0.27s

Barrier performed 0 iterations in 1.84 seconds (5.06 work units)
Barrier solve interrupted - model solved by another algorithm

Concurrent spin time: 0.11s (can be avoided by choosing Method=3)

Solved with dual simplex

Root relaxation: objective 9.936896e+05, 2646 iterations, 0.50 seconds (0.98 work units)

    Nodes    |    Current Node    |     Objective Bounds      |     Work
 Expl Unexpl |  Obj  Depth IntInf | Incumbent    BestBd   Gap | It/Node Time

     0     0 993689.634    0  857 2.4705e+07 993689.634  96.0%     -    2s
     0     0 1009483.59    0 1595 2.4705e+07 1009483.59  95.9%     -   10s
H    0     0                    1269616.0641 1009484.97  20.5%     -   15s
H    0     0                    1188123.9596 1009484.97  15.0%     -   15s
H    0     0                    1167648.4103 1009484.97  13.5%     -   15s
H    0     0                    1167648.4099 1009484.97  13.5%     -   16s
     0     0 1009738.61    0 1628 1167648.41 1009738.61  13.5%     -   22s
     0     0 1010246.44    0 1705 1167648.41 1010246.44  13.5%     -   24s
     0     0 1010298.80    0 1706 1167648.41 1010298.80  13.5%     -   24s
     0     0 1010314.32    0 1717 1167648.41 1010314.32  13.5%     -   24s
     0     0 1085603.00    0 1791 1167648.41 1085603.00  7.03%     -  205s
     0     0 1086229.55    0 1862 1167648.41 1086229.55  6.97%     -  213s
     0     0 1086469.57    0 1817 1167648.41 1086469.57  6.95%     -  221s
     0     0 1086571.95    0 1973 1167648.41 1086571.95  6.94%     -  227s
     0     0 1086728.85    0 2062 1167648.41 1086728.85  6.93%     -  232s
     0     0 1086753.68    0 2099 1167648.41 1086753.68  6.93%     -  238s
     0     0 1086763.63    0 2009 1167648.41 1086763.63  6.93%     -  240s
     0     0 1086791.58    0 1902 1167648.41 1086791.58  6.92%     -  241s
     0     0 1086841.45    0 1852 1167648.41 1086841.45  6.92%     -  244s
     0     0 1086974.09    0 1741 1167648.41 1086974.09  6.91%     -  245s
     0     0 1086981.80    0 1917 1167648.41 1086981.80  6.91%     -  245s
H    0     0                    1163085.1616 1086981.80  6.54%     -  247s
H    0     0                    1122073.0076 1086981.80  3.13%     -  247s
H    0     0                    1101635.4550 1086981.80  1.33%     -  247s
H    0     0                    1101405.5294 1086981.80  1.31%     -  248s
H    0     0                    1099984.8031 1086981.80  1.18%     -  248s
H    0     0                    1099984.8029 1086981.80  1.18%     -  248s
H    0     0                    1097303.8423 1086981.80  0.94%     -  248s
H    0     0                    1097303.8420 1086981.80  0.94%     -  248s
     0     0 1090616.54    0 1925 1097303.84 1090616.54  0.61%     -  315s
     0     0 1096450.45    0  196 1097303.84 1096450.45  0.08%     -  324s
     0     0 1096753.54    0    9 1097303.84 1096753.54  0.05%     -  324s
*    0     0               0    1096890.6695 1096890.67  0.00%     -  324s

Explored 1 nodes (100940 simplex iterations) in 324.92 seconds (871.06 work units)
Thread count was 10 (of 10 available processors)

Solution count 10: 1.09689e+06 1.09689e+06 1.0973e+06 ... 1.18812e+06
No other solutions better than 1.09689e+06

Optimal solution found (tolerance 1.00e-04)
Best objective 1.096890656408e+06, best bound 1.096890656408e+06, gap 0.0000%
